50
5512

981 892
72 896
408 926
40 342
89 927
940 915
645 246
409 756
425 235
34 839
11 388
837 109
882 74
9 510
52 686
327 707
584 277
826 732
890 942
187 788
864 779
35 627
358 649
59 248
301 265
873 528
526 320
146 414
115 620
527 127
122 400
76 63
162 214
228 428
51 890
367 484
141 219
758 845
2 856
737 459
895 972
377 867
499 29
763 104
665 401
663 756
742 305
80 296
205 55
228 788
